p cnf 430 1488
-191 135 0
-191 -82 0
-191 -91 0
-191 -75 0
-191 94 0
191 -135 82 91 75 -94 0
-192 92 0
-192 29 0
-192 17 0
-192 -125 0
-192 -80 0
192 -92 -29 -17 125 80 0
-193 5 0
-193 174 0
-193 127 0
-193 -105 0
-193 122 0
193 -5 -174 -127 105 -122 0
-194 -45 0
-194 69 0
-194 7 0
-194 93 0
-194 -180 0
194 45 -69 -7 -93 180 0
-195 -88 0
-195 -189 0
-195 76 0
-195 -182 0
-195 -41 0
195 88 189 -76 182 41 0
191 192 193 194 195 0
-196 -49 0
-196 -100 0
-196 -33 0
-196 -116 0
-196 102 0
196 49 100 33 116 -102 0
-197 -81 0
-197 63 0
-197 186 0
-197 -80 0
-197 10 0
197 81 -63 -186 80 -10 0
-198 118 0
-198 150 0
-198 -61 0
-198 73 0
-198 -71 0
198 -118 -150 61 -73 71 0
-199 -33 0
-199 58 0
-199 -165 0
-199 -35 0
-199 38 0
199 33 -58 165 35 -38 0
-200 73 0
-200 -171 0
-200 -59 0
-200 -67 0
-200 -46 0
200 -73 171 59 67 46 0
196 197 198 199 200 0
-201 -3 0
-201 -139 0
-201 114 0
-201 152 0
-201 157 0
201 3 139 -114 -152 -157 0
-202 -30 0
-202 61 0
-202 -106 0
-202 110 0
-202 -48 0
202 30 -61 106 -110 48 0
-203 74 0
-203 111 0
-203 109 0
-203 -190 0
-203 -88 0
203 -74 -111 -109 190 88 0
-204 -25 0
-204 -60 0
-204 115 0
-204 -17 0
-204 109 0
204 25 60 -115 17 -109 0
-205 94 0
-205 163 0
-205 -157 0
-205 -119 0
-205 -11 0
205 -94 -163 157 119 11 0
201 202 203 204 205 0
-206 -162 0
-206 97 0
-206 178 0
-206 -23 0
-206 -143 0
206 162 -97 -178 23 143 0
-207 -80 0
-207 -121 0
-207 90 0
-207 85 0
-207 131 0
207 80 121 -90 -85 -131 0
-208 -164 0
-208 102 0
-208 15 0
-208 -187 0
-208 -25 0
208 164 -102 -15 187 25 0
-209 -112 0
-209 -22 0
-209 -149 0
-209 78 0
-209 171 0
209 112 22 149 -78 -171 0
-210 72 0
-210 14 0
-210 -26 0
-210 -40 0
-210 66 0
210 -72 -14 26 40 -66 0
206 207 208 209 210 0
-211 -86 0
-211 -175 0
-211 -8 0
-211 59 0
-211 143 0
211 86 175 8 -59 -143 0
-212 -151 0
-212 -139 0
-212 18 0
-212 -62 0
-212 -97 0
212 151 139 -18 62 97 0
-213 149 0
-213 34 0
-213 62 0
-213 -22 0
-213 -136 0
213 -149 -34 -62 22 136 0
-214 93 0
-214 155 0
-214 -24 0
-214 -1 0
-214 120 0
214 -93 -155 24 1 -120 0
-215 -88 0
-215 13 0
-215 21 0
-215 127 0
-215 -141 0
215 88 -13 -21 -127 141 0
211 212 213 214 215 0
-216 19 0
-216 176 0
-216 119 0
-216 46 0
-216 172 0
216 -19 -176 -119 -46 -172 0
-217 -102 0
-217 1 0
-217 -46 0
-217 103 0
-217 23 0
217 102 -1 46 -103 -23 0
-218 135 0
-218 -113 0
-218 126 0
-218 83 0
-218 81 0
218 -135 113 -126 -83 -81 0
-219 -25 0
-219 112 0
-219 -114 0
-219 -42 0
-219 -124 0
219 25 -112 114 42 124 0
-220 20 0
-220 -27 0
-220 91 0
-220 85 0
-220 88 0
220 -20 27 -91 -85 -88 0
216 217 218 219 220 0
-221 90 0
-221 55 0
-221 105 0
-221 131 0
-221 -18 0
221 -90 -55 -105 -131 18 0
-222 -155 0
-222 44 0
-222 -50 0
-222 28 0
-222 27 0
222 155 -44 50 -28 -27 0
-223 -85 0
-223 -172 0
-223 -27 0
-223 123 0
-223 -117 0
223 85 172 27 -123 117 0
-224 84 0
-224 114 0
-224 23 0
-224 44 0
-224 -99 0
224 -84 -114 -23 -44 99 0
-225 -108 0
-225 -179 0
-225 17 0
-225 140 0
-225 98 0
225 108 179 -17 -140 -98 0
221 222 223 224 225 0
-226 -72 0
-226 152 0
-226 169 0
-226 -80 0
-226 -140 0
226 72 -152 -169 80 140 0
-227 59 0
-227 180 0
-227 142 0
-227 144 0
-227 161 0
227 -59 -180 -142 -144 -161 0
-228 180 0
-228 104 0
-228 42 0
-228 93 0
-228 -92 0
228 -180 -104 -42 -93 92 0
-229 94 0
-229 139 0
-229 -27 0
-229 183 0
-229 6 0
229 -94 -139 27 -183 -6 0
-230 15 0
-230 96 0
-230 158 0
-230 149 0
-230 -73 0
230 -15 -96 -158 -149 73 0
226 227 228 229 230 0
-231 133 0
-231 30 0
-231 -56 0
-231 -184 0
-231 174 0
231 -133 -30 56 184 -174 0
-232 42 0
-232 139 0
-232 -83 0
-232 -102 0
-232 -50 0
232 -42 -139 83 102 50 0
-233 36 0
-233 -91 0
-233 166 0
-233 40 0
-233 -168 0
233 -36 91 -166 -40 168 0
-234 -135 0
-234 149 0
-234 84 0
-234 125 0
-234 87 0
234 135 -149 -84 -125 -87 0
-235 -21 0
-235 18 0
-235 60 0
-235 -2 0
-235 -140 0
235 21 -18 -60 2 140 0
231 232 233 234 235 0
-236 46 0
-236 26 0
-236 60 0
-236 -30 0
-236 93 0
236 -46 -26 -60 30 -93 0
-237 17 0
-237 -90 0
-237 -8 0
-237 159 0
-237 -4 0
237 -17 90 8 -159 4 0
-238 -4 0
-238 91 0
-238 -55 0
-238 -71 0
-238 -3 0
238 4 -91 55 71 3 0
-239 -15 0
-239 45 0
-239 18 0
-239 -130 0
-239 145 0
239 15 -45 -18 130 -145 0
-240 152 0
-240 8 0
-240 -68 0
-240 -23 0
-240 98 0
240 -152 -8 68 23 -98 0
236 237 238 239 240 0
-241 -166 0
-241 175 0
-241 -36 0
-241 -86 0
-241 -151 0
241 166 -175 36 86 151 0
-242 21 0
-242 -146 0
-242 -25 0
-242 38 0
-242 -48 0
242 -21 146 25 -38 48 0
-243 -163 0
-243 -183 0
-243 -147 0
-243 -144 0
-243 -89 0
243 163 183 147 144 89 0
-244 -161 0
-244 -71 0
-244 188 0
-244 69 0
-244 -48 0
244 161 71 -188 -69 48 0
-245 -31 0
-245 -47 0
-245 154 0
-245 -87 0
-245 -8 0
245 31 47 -154 87 8 0
241 242 243 244 245 0
-246 143 0
-246 -65 0
-246 50 0
-246 -68 0
-246 -5 0
246 -143 65 -50 68 5 0
-247 -153 0
-247 150 0
-247 -129 0
-247 -164 0
-247 -85 0
247 153 -150 129 164 85 0
-248 -6 0
-248 175 0
-248 61 0
-248 -163 0
-248 -74 0
248 6 -175 -61 163 74 0
-249 -32 0
-249 -141 0
-249 47 0
-249 -132 0
-249 147 0
249 32 141 -47 132 -147 0
-250 31 0
-250 -12 0
-250 -6 0
-250 74 0
-250 -79 0
250 -31 12 6 -74 79 0
246 247 248 249 250 0
-251 12 0
-251 -62 0
-251 15 0
-251 79 0
-251 142 0
251 -12 62 -15 -79 -142 0
-252 -28 0
-252 96 0
-252 -55 0
-252 -136 0
-252 -182 0
252 28 -96 55 136 182 0
-253 53 0
-253 96 0
-253 -127 0
-253 -91 0
-253 174 0
253 -53 -96 127 91 -174 0
-254 -130 0
-254 -6 0
-254 -74 0
-254 -69 0
-254 22 0
254 130 6 74 69 -22 0
-255 -81 0
-255 131 0
-255 -118 0
-255 10 0
-255 -172 0
255 81 -131 118 -10 172 0
251 252 253 254 255 0
-256 148 0
-256 -165 0
-256 -26 0
-256 61 0
-256 163 0
256 -148 165 26 -61 -163 0
-257 -108 0
-257 2 0
-257 -186 0
-257 131 0
-257 156 0
257 108 -2 186 -131 -156 0
-258 165 0
-258 104 0
-258 -188 0
-258 -62 0
-258 -74 0
258 -165 -104 188 62 74 0
-259 -150 0
-259 -100 0
-259 141 0
-259 93 0
-259 -109 0
259 150 100 -141 -93 109 0
-260 141 0
-260 37 0
-260 -59 0
-260 -108 0
-260 152 0
260 -141 -37 59 108 -152 0
256 257 258 259 260 0
-261 -148 0
-261 -58 0
-261 -82 0
-261 103 0
-261 150 0
261 148 58 82 -103 -150 0
-262 119 0
-262 -19 0
-262 -156 0
-262 94 0
-262 29 0
262 -119 19 156 -94 -29 0
-263 173 0
-263 -46 0
-263 -97 0
-263 -64 0
-263 -44 0
263 -173 46 97 64 44 0
-264 -157 0
-264 -156 0
-264 -67 0
-264 -152 0
-264 -158 0
264 157 156 67 152 158 0
-265 164 0
-265 96 0
-265 10 0
-265 -61 0
-265 -22 0
265 -164 -96 -10 61 22 0
261 262 263 264 265 0
-266 -66 0
-266 146 0
-266 25 0
-266 169 0
-266 188 0
266 66 -146 -25 -169 -188 0
-267 -123 0
-267 108 0
-267 72 0
-267 -56 0
-267 14 0
267 123 -108 -72 56 -14 0
-268 -104 0
-268 -153 0
-268 -85 0
-268 45 0
-268 -67 0
268 104 153 85 -45 67 0
-269 34 0
-269 110 0
-269 -136 0
-269 41 0
-269 52 0
269 -34 -110 136 -41 -52 0
-270 -43 0
-270 -44 0
-270 145 0
-270 -27 0
-270 -52 0
270 43 44 -145 27 52 0
266 267 268 269 270 0
-271 69 0
-271 -162 0
-271 -23 0
-271 -49 0
-271 -35 0
271 -69 162 23 49 35 0
-272 74 0
-272 -24 0
-272 158 0
-272 132 0
-272 131 0
272 -74 24 -158 -132 -131 0
-273 55 0
-273 26 0
-273 -2 0
-273 159 0
-273 -149 0
273 -55 -26 2 -159 149 0
-274 31 0
-274 148 0
-274 -185 0
-274 2 0
-274 -178 0
274 -31 -148 185 -2 178 0
-275 127 0
-275 -88 0
-275 -17 0
-275 71 0
-275 -21 0
275 -127 88 17 -71 21 0
271 272 273 274 275 0
-276 9 0
-276 -8 0
-276 -126 0
-276 127 0
-276 -2 0
276 -9 8 126 -127 2 0
-277 -42 0
-277 59 0
-277 -13 0
-277 -107 0
-277 102 0
277 42 -59 13 107 -102 0
-278 62 0
-278 -150 0
-278 75 0
-278 -126 0
-278 -38 0
278 -62 150 -75 126 38 0
-279 104 0
-279 90 0
-279 -29 0
-279 32 0
-279 -81 0
279 -104 -90 29 -32 81 0
-280 -154 0
-280 178 0
-280 79 0
-280 -150 0
-280 115 0
280 154 -178 -79 150 -115 0
276 277 278 279 280 0
-281 55 0
-281 14 0
-281 156 0
-281 87 0
-281 -54 0
281 -55 -14 -156 -87 54 0
-282 168 0
-282 171 0
-282 172 0
-282 146 0
-282 -27 0
282 -168 -171 -172 -146 27 0
-283 58 0
-283 49 0
-283 14 0
-283 -71 0
-283 -47 0
283 -58 -49 -14 71 47 0
-284 -101 0
-284 104 0
-284 -117 0
-284 -27 0
-284 168 0
284 101 -104 117 27 -168 0
-285 109 0
-285 -8 0
-285 -26 0
-285 1 0
-285 -17 0
285 -109 8 26 -1 17 0
281 282 283 284 285 0
-286 51 0
-286 114 0
-286 7 0
-286 66 0
-286 -14 0
286 -51 -114 -7 -66 14 0
-287 -32 0
-287 -109 0
-287 -140 0
-287 -92 0
-287 78 0
287 32 109 140 92 -78 0
-288 -150 0
-288 77 0
-288 -132 0
-288 -46 0
-288 189 0
288 150 -77 132 46 -189 0
-289 82 0
-289 17 0
-289 49 0
-289 156 0
-289 -23 0
289 -82 -17 -49 -156 23 0
-290 3 0
-290 -121 0
-290 83 0
-290 166 0
-290 104 0
290 -3 121 -83 -166 -104 0
286 287 288 289 290 0
-291 165 0
-291 23 0
-291 -138 0
-291 65 0
-291 41 0
291 -165 -23 138 -65 -41 0
-292 171 0
-292 -135 0
-292 -181 0
-292 91 0
-292 -12 0
292 -171 135 181 -91 12 0
-293 8 0
-293 -189 0
-293 -164 0
-293 -15 0
-293 132 0
293 -8 189 164 15 -132 0
-294 -84 0
-294 85 0
-294 183 0
-294 32 0
-294 157 0
294 84 -85 -183 -32 -157 0
-295 155 0
-295 -26 0
-295 94 0
-295 -44 0
-295 -160 0
295 -155 26 -94 44 160 0
291 292 293 294 295 0
-296 -139 0
-296 13 0
-296 99 0
-296 -151 0
-296 -153 0
296 139 -13 -99 151 153 0
-297 133 0
-297 -77 0
-297 -163 0
-297 -79 0
-297 -142 0
297 -133 77 163 79 142 0
-298 -39 0
-298 107 0
-298 -128 0
-298 145 0
-298 -82 0
298 39 -107 128 -145 82 0
-299 75 0
-299 119 0
-299 -48 0
-299 103 0
-299 -114 0
299 -75 -119 48 -103 114 0
-300 -185 0
-300 -158 0
-300 152 0
-300 -46 0
-300 -34 0
300 185 158 -152 46 34 0
296 297 298 299 300 0
-301 96 0
-301 -84 0
-301 -55 0
-301 158 0
-301 127 0
301 -96 84 55 -158 -127 0
-302 -83 0
-302 -35 0
-302 54 0
-302 -142 0
-302 32 0
302 83 35 -54 142 -32 0
-303 43 0
-303 158 0
-303 -24 0
-303 -29 0
-303 -163 0
303 -43 -158 24 29 163 0
-304 -160 0
-304 -114 0
-304 -161 0
-304 60 0
-304 -170 0
304 160 114 161 -60 170 0
-305 -129 0
-305 106 0
-305 19 0
-305 31 0
-305 149 0
305 129 -106 -19 -31 -149 0
301 302 303 304 305 0
-306 70 0
-306 3 0
-306 79 0
-306 -23 0
-306 -17 0
306 -70 -3 -79 23 17 0
-307 -144 0
-307 -45 0
-307 -12 0
-307 -50 0
-307 89 0
307 144 45 12 50 -89 0
-308 24 0
-308 -183 0
-308 59 0
-308 -139 0
-308 -67 0
308 -24 183 -59 139 67 0
-309 96 0
-309 -92 0
-309 79 0
-309 90 0
-309 21 0
309 -96 92 -79 -90 -21 0
-310 -142 0
-310 -80 0
-310 46 0
-310 -25 0
-310 -79 0
310 142 80 -46 25 79 0
306 307 308 309 310 0
-311 -114 0
-311 -109 0
-311 -80 0
-311 51 0
-311 63 0
311 114 109 80 -51 -63 0
-312 -110 0
-312 46 0
-312 -83 0
-312 93 0
-312 17 0
312 110 -46 83 -93 -17 0
-313 -179 0
-313 -155 0
-313 -51 0
-313 188 0
-313 -182 0
313 179 155 51 -188 182 0
-314 182 0
-314 39 0
-314 -34 0
-314 -79 0
-314 -123 0
314 -182 -39 34 79 123 0
-315 67 0
-315 133 0
-315 -63 0
-315 -93 0
-315 -148 0
315 -67 -133 63 93 148 0
311 312 313 314 315 0
-316 -108 0
-316 -75 0
-316 -150 0
-316 -146 0
-316 137 0
316 108 75 150 146 -137 0
-317 -179 0
-317 148 0
-317 83 0
-317 -180 0
-317 78 0
317 179 -148 -83 180 -78 0
-318 170 0
-318 -31 0
-318 116 0
-318 20 0
-318 -35 0
318 -170 31 -116 -20 35 0
-319 -25 0
-319 105 0
-319 86 0
-319 -103 0
-319 19 0
319 25 -105 -86 103 -19 0
-320 11 0
-320 166 0
-320 -127 0
-320 25 0
-320 14 0
320 -11 -166 127 -25 -14 0
316 317 318 319 320 0
-321 -123 0
-321 -136 0
-321 23 0
-321 -38 0
-321 122 0
321 123 136 -23 38 -122 0
-322 98 0
-322 91 0
-322 -3 0
-322 -120 0
-322 -156 0
322 -98 -91 3 120 156 0
-323 -87 0
-323 156 0
-323 27 0
-323 178 0
-323 103 0
323 87 -156 -27 -178 -103 0
-324 173 0
-324 154 0
-324 -183 0
-324 -146 0
-324 26 0
324 -173 -154 183 146 -26 0
-325 115 0
-325 167 0
-325 127 0
-325 -138 0
-325 -78 0
325 -115 -167 -127 138 78 0
321 322 323 324 325 0
-326 -188 0
-326 -176 0
-326 45 0
-326 32 0
-326 147 0
326 188 176 -45 -32 -147 0
-327 -24 0
-327 72 0
-327 -133 0
-327 -119 0
-327 32 0
327 24 -72 133 119 -32 0
-328 155 0
-328 13 0
-328 -52 0
-328 87 0
-328 -168 0
328 -155 -13 52 -87 168 0
-329 -72 0
-329 157 0
-329 80 0
-329 7 0
-329 21 0
329 72 -157 -80 -7 -21 0
-330 -21 0
-330 106 0
-330 113 0
-330 13 0
-330 -12 0
330 21 -106 -113 -13 12 0
326 327 328 329 330 0
-331 -5 0
-331 54 0
-331 -171 0
-331 -74 0
-331 39 0
331 5 -54 171 74 -39 0
-332 -84 0
-332 78 0
-332 -14 0
-332 -166 0
-332 -181 0
332 84 -78 14 166 181 0
-333 -159 0
-333 -74 0
-333 -146 0
-333 123 0
-333 -84 0
333 159 74 146 -123 84 0
-334 -5 0
-334 52 0
-334 78 0
-334 -90 0
-334 147 0
334 5 -52 -78 90 -147 0
-335 14 0
-335 -178 0
-335 136 0
-335 -177 0
-335 -11 0
335 -14 178 -136 177 11 0
331 332 333 334 335 0
-336 48 0
-336 175 0
-336 -93 0
-336 -61 0
-336 110 0
336 -48 -175 93 61 -110 0
-337 -184 0
-337 79 0
-337 -54 0
-337 99 0
-337 2 0
337 184 -79 54 -99 -2 0
-338 -60 0
-338 141 0
-338 -170 0
-338 168 0
-338 -174 0
338 60 -141 170 -168 174 0
-339 -165 0
-339 115 0
-339 -125 0
-339 46 0
-339 -171 0
339 165 -115 125 -46 171 0
-340 -81 0
-340 -149 0
-340 -154 0
-340 -66 0
-340 -42 0
340 81 149 154 66 42 0
336 337 338 339 340 0
-341 127 0
-341 151 0
-341 136 0
-341 121 0
-341 -6 0
341 -127 -151 -136 -121 6 0
-342 25 0
-342 127 0
-342 -113 0
-342 -43 0
-342 84 0
342 -25 -127 113 43 -84 0
-343 -1 0
-343 -102 0
-343 -170 0
-343 143 0
-343 112 0
343 1 102 170 -143 -112 0
-344 47 0
-344 -164 0
-344 137 0
-344 -40 0
-344 -162 0
344 -47 164 -137 40 162 0
-345 44 0
-345 157 0
-345 -173 0
-345 -15 0
-345 -96 0
345 -44 -157 173 15 96 0
341 342 343 344 345 0
-346 -89 0
-346 135 0
-346 -86 0
-346 -4 0
-346 -42 0
346 89 -135 86 4 42 0
-347 -22 0
-347 -103 0
-347 -133 0
-347 -50 0
-347 2 0
347 22 103 133 50 -2 0
-348 77 0
-348 -6 0
-348 -180 0
-348 -109 0
-348 124 0
348 -77 6 180 109 -124 0
-349 52 0
-349 1 0
-349 -53 0
-349 -5 0
-349 -35 0
349 -52 -1 53 5 35 0
-350 -98 0
-350 127 0
-350 138 0
-350 142 0
-350 14 0
350 98 -127 -138 -142 -14 0
346 347 348 349 350 0
-351 147 0
-351 -29 0
-351 -94 0
-351 82 0
-351 -165 0
351 -147 29 94 -82 165 0
-352 -117 0
-352 -125 0
-352 -129 0
-352 21 0
-352 98 0
352 117 125 129 -21 -98 0
-353 -176 0
-353 -13 0
-353 -93 0
-353 -124 0
-353 19 0
353 176 13 93 124 -19 0
-354 61 0
-354 -145 0
-354 -14 0
-354 45 0
-354 25 0
354 -61 145 14 -45 -25 0
-355 -101 0
-355 5 0
-355 -2 0
-355 -138 0
-355 1 0
355 101 -5 2 138 -1 0
351 352 353 354 355 0
-356 -89 0
-356 143 0
-356 -137 0
-356 -174 0
-356 97 0
356 89 -143 137 174 -97 0
-357 -177 0
-357 -179 0
-357 -42 0
-357 -115 0
-357 173 0
357 177 179 42 115 -173 0
-358 -150 0
-358 37 0
-358 66 0
-358 34 0
-358 -27 0
358 150 -37 -66 -34 27 0
-359 -60 0
-359 -16 0
-359 -190 0
-359 5 0
-359 59 0
359 60 16 190 -5 -59 0
-360 4 0
-360 -125 0
-360 -78 0
-360 97 0
-360 -106 0
360 -4 125 78 -97 106 0
356 357 358 359 360 0
-361 12 0
-361 103 0
-361 56 0
-361 -50 0
-361 139 0
361 -12 -103 -56 50 -139 0
-362 18 0
-362 -151 0
-362 -145 0
-362 -122 0
-362 17 0
362 -18 151 145 122 -17 0
-363 -170 0
-363 -43 0
-363 -99 0
-363 -159 0
-363 157 0
363 170 43 99 159 -157 0
-364 148 0
-364 -142 0
-364 44 0
-364 -72 0
-364 106 0
364 -148 142 -44 72 -106 0
-365 58 0
-365 47 0
-365 -78 0
-365 2 0
-365 -7 0
365 -58 -47 78 -2 7 0
361 362 363 364 365 0
-366 40 0
-366 61 0
-366 165 0
-366 119 0
-366 -35 0
366 -40 -61 -165 -119 35 0
-367 -92 0
-367 -69 0
-367 -16 0
-367 41 0
-367 141 0
367 92 69 16 -41 -141 0
-368 77 0
-368 9 0
-368 -91 0
-368 -62 0
-368 -21 0
368 -77 -9 91 62 21 0
-369 172 0
-369 138 0
-369 164 0
-369 -162 0
-369 -24 0
369 -172 -138 -164 162 24 0
-370 -90 0
-370 88 0
-370 17 0
-370 -33 0
-370 -181 0
370 90 -88 -17 33 181 0
366 367 368 369 370 0
-371 16 0
-371 -120 0
-371 -60 0
-371 48 0
-371 -66 0
371 -16 120 60 -48 66 0
-372 -170 0
-372 69 0
-372 166 0
-372 163 0
-372 -68 0
372 170 -69 -166 -163 68 0
-373 -80 0
-373 -180 0
-373 89 0
-373 -2 0
-373 -135 0
373 80 180 -89 2 135 0
-374 95 0
-374 -132 0
-374 -64 0
-374 186 0
-374 94 0
374 -95 132 64 -186 -94 0
-375 -168 0
-375 125 0
-375 -181 0
-375 -164 0
-375 14 0
375 168 -125 181 164 -14 0
371 372 373 374 375 0
-376 88 0
-376 90 0
-376 -19 0
-376 -22 0
-376 168 0
376 -88 -90 19 22 -168 0
-377 -37 0
-377 -171 0
-377 16 0
-377 104 0
-377 152 0
377 37 171 -16 -104 -152 0
-378 -75 0
-378 -154 0
-378 25 0
-378 143 0
-378 178 0
378 75 154 -25 -143 -178 0
-379 67 0
-379 178 0
-379 101 0
-379 -105 0
-379 -63 0
379 -67 -178 -101 105 63 0
-380 51 0
-380 -175 0
-380 84 0
-380 156 0
-380 -4 0
380 -51 175 -84 -156 4 0
376 377 378 379 380 0
-381 -50 0
-381 -65 0
-381 -40 0
-381 18 0
-381 -86 0
381 50 65 40 -18 86 0
-382 26 0
-382 98 0
-382 169 0
-382 185 0
-382 67 0
382 -26 -98 -169 -185 -67 0
-383 -163 0
-383 34 0
-383 51 0
-383 62 0
-383 55 0
383 163 -34 -51 -62 -55 0
-384 -146 0
-384 -140 0
-384 159 0
-384 -43 0
-384 -9 0
384 146 140 -159 43 9 0
-385 -34 0
-385 188 0
-385 94 0
-385 -40 0
-385 -183 0
385 34 -188 -94 40 183 0
381 382 383 384 385 0
-386 -26 0
-386 110 0
-386 89 0
-386 172 0
-386 -67 0
386 26 -110 -89 -172 67 0
-387 -34 0
-387 -163 0
-387 -41 0
-387 -166 0
-387 91 0
387 34 163 41 166 -91 0
-388 -37 0
-388 -64 0
-388 -160 0
-388 10 0
-388 -11 0
388 37 64 160 -10 11 0
-389 55 0
-389 143 0
-389 37 0
-389 108 0
-389 -186 0
389 -55 -143 -37 -108 186 0
-390 -154 0
-390 -39 0
-390 146 0
-390 -167 0
-390 142 0
390 154 39 -146 167 -142 0
386 387 388 389 390 0
-391 -187 0
-391 -116 0
-391 -124 0
-391 -117 0
-391 46 0
391 187 116 124 117 -46 0
-392 23 0
-392 -72 0
-392 -134 0
-392 -117 0
-392 -33 0
392 -23 72 134 117 33 0
-393 -106 0
-393 82 0
-393 6 0
-393 63 0
-393 -52 0
393 106 -82 -6 -63 52 0
-394 -43 0
-394 -155 0
-394 -54 0
-394 91 0
-394 -64 0
394 43 155 54 -91 64 0
-395 72 0
-395 97 0
-395 179 0
-395 163 0
-395 106 0
395 -72 -97 -179 -163 -106 0
391 392 393 394 395 0
-396 -138 0
-396 -19 0
-396 -181 0
-396 -71 0
-396 -117 0
396 138 19 181 71 117 0
-397 -13 0
-397 -101 0
-397 -61 0
-397 -136 0
-397 144 0
397 13 101 61 136 -144 0
-398 -5 0
-398 -111 0
-398 -157 0
-398 -67 0
-398 -184 0
398 5 111 157 67 184 0
-399 4 0
-399 -81 0
-399 104 0
-399 -35 0
-399 -64 0
399 -4 81 -104 35 64 0
-400 96 0
-400 -150 0
-400 87 0
-400 -111 0
-400 -167 0
400 -96 150 -87 111 167 0
396 397 398 399 400 0
-401 -50 0
-401 -156 0
-401 -178 0
-401 -87 0
-401 107 0
401 50 156 178 87 -107 0
-402 -71 0
-402 65 0
-402 -167 0
-402 -90 0
-402 -179 0
402 71 -65 167 90 179 0
-403 74 0
-403 50 0
-403 -16 0
-403 8 0
-403 -47 0
403 -74 -50 16 -8 47 0
-404 155 0
-404 -17 0
-404 132 0
-404 119 0
-404 88 0
404 -155 17 -132 -119 -88 0
-405 68 0
-405 11 0
-405 147 0
-405 148 0
-405 -174 0
405 -68 -11 -147 -148 174 0
401 402 403 404 405 0
-406 93 0
-406 102 0
-406 -117 0
-406 27 0
-406 -96 0
406 -93 -102 117 -27 96 0
-407 169 0
-407 -133 0
-407 46 0
-407 30 0
-407 -37 0
407 -169 133 -46 -30 37 0
-408 43 0
-408 -21 0
-408 86 0
-408 84 0
-408 77 0
408 -43 21 -86 -84 -77 0
-409 -141 0
-409 77 0
-409 -46 0
-409 -83 0
-409 180 0
409 141 -77 46 83 -180 0
-410 49 0
-410 11 0
-410 154 0
-410 20 0
-410 -109 0
410 -49 -11 -154 -20 109 0
406 407 408 409 410 0
-411 181 0
-411 -44 0
-411 -51 0
-411 183 0
-411 -96 0
411 -181 44 51 -183 96 0
-412 -89 0
-412 -110 0
-412 -180 0
-412 -183 0
-412 4 0
412 89 110 180 183 -4 0
-413 -59 0
-413 8 0
-413 -163 0
-413 -4 0
-413 -16 0
413 59 -8 163 4 16 0
-414 -128 0
-414 -47 0
-414 2 0
-414 187 0
-414 -174 0
414 128 47 -2 -187 174 0
-415 -28 0
-415 64 0
-415 -94 0
-415 -79 0
-415 -190 0
415 28 -64 94 79 190 0
411 412 413 414 415 0
-416 152 0
-416 -8 0
-416 31 0
-416 172 0
-416 -65 0
416 -152 8 -31 -172 65 0
-417 98 0
-417 63 0
-417 -162 0
-417 -189 0
-417 -152 0
417 -98 -63 162 189 152 0
-418 -120 0
-418 43 0
-418 -80 0
-418 -70 0
-418 -71 0
418 120 -43 80 70 71 0
-419 121 0
-419 125 0
-419 166 0
-419 -70 0
-419 -110 0
419 -121 -125 -166 70 110 0
-420 146 0
-420 37 0
-420 20 0
-420 -124 0
-420 181 0
420 -146 -37 -20 124 -181 0
416 417 418 419 420 0
-421 -158 0
-421 78 0
-421 114 0
-421 -150 0
-421 53 0
421 158 -78 -114 150 -53 0
-422 -8 0
-422 -1 0
-422 91 0
-422 46 0
-422 -15 0
422 8 1 -91 -46 15 0
-423 30 0
-423 51 0
-423 -65 0
-423 123 0
-423 -109 0
423 -30 -51 65 -123 109 0
-424 -116 0
-424 -82 0
-424 127 0
-424 -71 0
-424 88 0
424 116 82 -127 71 -88 0
-425 -37 0
-425 45 0
-425 -46 0
-425 140 0
-425 -147 0
425 37 -45 46 -140 147 0
421 422 423 424 425 0
-426 -114 0
-426 140 0
-426 13 0
-426 150 0
-426 -113 0
426 114 -140 -13 -150 113 0
-427 -189 0
-427 10 0
-427 36 0
-427 -73 0
-427 74 0
427 189 -10 -36 73 -74 0
-428 -148 0
-428 140 0
-428 120 0
-428 131 0
-428 84 0
428 148 -140 -120 -131 -84 0
-429 83 0
-429 -105 0
-429 -12 0
-429 117 0
-429 4 0
429 -83 105 12 -117 -4 0
-430 -54 0
-430 -72 0
-430 -35 0
-430 86 0
-430 16 0
430 54 72 35 -86 -16 0
426 427 428 429 430 0
